NAME : N101P8.762.tour
COMMENT : Cost = 0_762
COMMENT : Found by LKH [Keld Helsgaun] Sun Sep 17 15:52:35 2017
TYPE : TOUR
DIMENSION : 101
TOUR_SECTION
1
55
39
99
73
11
47
62
57
88
86
90
23
10
51
78
59
6
32
70
7
46
82
63
83
48
28
95
56
33
49
58
20
45
9
98
61
14
43
69
75
89
4
76
21
8
84
41
22
72
13
64
16
31
19
65
29
37
24
79
38
66
30
87
2
96
52
25
94
81
50
36
35
85
18
80
34
40
74
93
15
60
3
68
71
54
77
42
12
97
27
91
17
101
67
53
44
100
92
26
5
-1
EOF
